# Objective value = 163
WA1n 0
WA1p 0
WA2n 1
WA2p 0
WB1n 0
WB1p 0
WB2n 0
WB2p 1
WC1n 1
WC1p 0
WD1n 0
WD1p 1
WE1n 0
WE1p 1
WF1n 3
WF1p 0
WF2n 1
WF2p 0
WG1n 3
WG1p 0
WG2n 1
WG2p 0
WH1n 0
WH1p 3
WH2n 0
WH2p 1
WI1n 11
WI1p 0
WI2n 1
WI2p 0
WJ1n 15
WJ1p 0
WK1n 15
WK1p 0
WL1n 15
WL1p 0
WM1n 0
WM1p 15
WN1n 0
WN1p 15
WO1n 0
WO1p 15
WT1n 0
WT1p 36
WT2n 0
WT2p 1
5 7
a 0
b 0
c 0
d 1
e 0
f 1
g 1
h 0
i 0
j 0
k 0
l 1
m 1
n 0
o 0
p 0
q 0
r 0
s 1
t 1
u 1
v 1
w 1
